3592
6835
2394
8360
8674
7834
3054
2058
3569
3437
7841
10170
4922
1647
1305
1958
636
6264
8112
3947
8097
2689
3901
2624
9839
7852
2160
1900
5296
8173
7686
6976
2636
7659
624
3266
3381
2390
8117
4320
8535
552
501
2942
7863
1345
2301
4863
8677
2921
7051
